============================[ Problem Statistics ]=============================|                                                                             ||  Number of variables:          4242                                         ||  Number of clauses:            9918                                         ||  Parse time:                   0.32 s                                       ||                                                                             |============================[ Search Statistics ]==============================| Conflicts |          ORIGINAL         |          LEARNT          | Progress ||           |    Vars  Clauses Literals |    Limit  Clauses Lit/Cl |          |===============================================================================|       100 |    1591     6123   489094 |     2245      100     53 | 62.501 % |===============================================================================restarts              : 2conflicts             : 183            (381 /sec)decisions             : 353            (0.00 % random) (735 /sec)propagations          : 10029          (20894 /sec)conflict literals     : 12590          (95.23 % deleted)CPU time              : 0.48 sSATISFIABLE